NAME : instances/clustered-diverse-tsp/instance-47.tsp
COMMENT : No Comment
TYPE : TSP
DIMENSION: 50
EDGE_WEIGHT_TYPE : EUC_2D
NODE_COORD_SECTION
1 840 514 
2 323 54 
3 1398 795 
4 1378 680 
5 251 210 
6 1682 1412 
7 1929 330 
8 1320 2000 
9 941 543 
10 623 848 
11 262 -38 
12 933 514 
13 1976 330 
14 286 70 
15 865 513 
16 1750 1527 
17 894 579 
18 960 465 
19 1130 213 
20 866 598 
21 218 299 
22 1202 1407 
23 1837 286 
24 313 -61 
25 336 -72 
26 1827 1422 
27 1183 1340 
28 964 458 
29 269 44 
30 1671 1409 
31 786 463 
32 298 -17 
33 1713 1365 
34 180 103 
35 1704 1352 
36 117 304 
37 1838 1480 
38 1451 710 
39 883 597 
40 168 -18 
41 72 270 
42 793 478 
43 1501 745 
44 612 848 
45 99 296 
46 859 625 
47 215 64 
48 1372 653 
49 1364 658 
50 1849 1367 
EOF
